c *********************************
c * Circuit generated by BenCGen
c *
c * CarrySaveAdder_81_81_81_81_82
c *
c * Ports with 1 gate(s): 2
c * Ports with 2 gate(s): 406
c * Total gates: 408
c *********************************
p cnf 651 1384
1 408 0
-1 -408 0
1 -407 0
408 -407 0
-1 -408 407 0
407 -325 0
-407 325 0
1 82 -409 0
-1 82 409 0
1 -82 409 0
-1 -82 -409 0
409 163 -244 0
-409 163 244 0
409 -163 244 0
-409 -163 -244 0
163 -410 0
409 -410 0
-163 -409 410 0
82 -411 0
1 -411 0
-82 -1 411 0
-410 326 0
-411 326 0
410 411 -326 0
2 83 -412 0
-2 83 412 0
2 -83 412 0
-2 -83 -412 0
412 164 -245 0
-412 164 245 0
412 -164 245 0
-412 -164 -245 0
164 -413 0
412 -413 0
-164 -412 413 0
83 -414 0
2 -414 0
-83 -2 414 0
-413 327 0
-414 327 0
413 414 -327 0
3 84 -415 0
-3 84 415 0
3 -84 415 0
-3 -84 -415 0
415 165 -246 0
-415 165 246 0
415 -165 246 0
-415 -165 -246 0
165 -416 0
415 -416 0
-165 -415 416 0
84 -417 0
3 -417 0
-84 -3 417 0
-416 328 0
-417 328 0
416 417 -328 0
4 85 -418 0
-4 85 418 0
4 -85 418 0
-4 -85 -418 0
418 166 -247 0
-418 166 247 0
418 -166 247 0
-418 -166 -247 0
166 -419 0
418 -419 0
-166 -418 419 0
85 -420 0
4 -420 0
-85 -4 420 0
-419 329 0
-420 329 0
419 420 -329 0
5 86 -421 0
-5 86 421 0
5 -86 421 0
-5 -86 -421 0
421 167 -248 0
-421 167 248 0
421 -167 248 0
-421 -167 -248 0
167 -422 0
421 -422 0
-167 -421 422 0
86 -423 0
5 -423 0
-86 -5 423 0
-422 330 0
-423 330 0
422 423 -330 0
6 87 -424 0
-6 87 424 0
6 -87 424 0
-6 -87 -424 0
424 168 -249 0
-424 168 249 0
424 -168 249 0
-424 -168 -249 0
168 -425 0
424 -425 0
-168 -424 425 0
87 -426 0
6 -426 0
-87 -6 426 0
-425 331 0
-426 331 0
425 426 -331 0
7 88 -427 0
-7 88 427 0
7 -88 427 0
-7 -88 -427 0
427 169 -250 0
-427 169 250 0
427 -169 250 0
-427 -169 -250 0
169 -428 0
427 -428 0
-169 -427 428 0
88 -429 0
7 -429 0
-88 -7 429 0
-428 332 0
-429 332 0
428 429 -332 0
8 89 -430 0
-8 89 430 0
8 -89 430 0
-8 -89 -430 0
430 170 -251 0
-430 170 251 0
430 -170 251 0
-430 -170 -251 0
170 -431 0
430 -431 0
-170 -430 431 0
89 -432 0
8 -432 0
-89 -8 432 0
-431 333 0
-432 333 0
431 432 -333 0
9 90 -433 0
-9 90 433 0
9 -90 433 0
-9 -90 -433 0
433 171 -252 0
-433 171 252 0
433 -171 252 0
-433 -171 -252 0
171 -434 0
433 -434 0
-171 -433 434 0
90 -435 0
9 -435 0
-90 -9 435 0
-434 334 0
-435 334 0
434 435 -334 0
10 91 -436 0
-10 91 436 0
10 -91 436 0
-10 -91 -436 0
436 172 -253 0
-436 172 253 0
436 -172 253 0
-436 -172 -253 0
172 -437 0
436 -437 0
-172 -436 437 0
91 -438 0
10 -438 0
-91 -10 438 0
-437 335 0
-438 335 0
437 438 -335 0
11 92 -439 0
-11 92 439 0
11 -92 439 0
-11 -92 -439 0
439 173 -254 0
-439 173 254 0
439 -173 254 0
-439 -173 -254 0
173 -440 0
439 -440 0
-173 -439 440 0
92 -441 0
11 -441 0
-92 -11 441 0
-440 336 0
-441 336 0
440 441 -336 0
12 93 -442 0
-12 93 442 0
12 -93 442 0
-12 -93 -442 0
442 174 -255 0
-442 174 255 0
442 -174 255 0
-442 -174 -255 0
174 -443 0
442 -443 0
-174 -442 443 0
93 -444 0
12 -444 0
-93 -12 444 0
-443 337 0
-444 337 0
443 444 -337 0
13 94 -445 0
-13 94 445 0
13 -94 445 0
-13 -94 -445 0
445 175 -256 0
-445 175 256 0
445 -175 256 0
-445 -175 -256 0
175 -446 0
445 -446 0
-175 -445 446 0
94 -447 0
13 -447 0
-94 -13 447 0
-446 338 0
-447 338 0
446 447 -338 0
14 95 -448 0
-14 95 448 0
14 -95 448 0
-14 -95 -448 0
448 176 -257 0
-448 176 257 0
448 -176 257 0
-448 -176 -257 0
176 -449 0
448 -449 0
-176 -448 449 0
95 -450 0
14 -450 0
-95 -14 450 0
-449 339 0
-450 339 0
449 450 -339 0
15 96 -451 0
-15 96 451 0
15 -96 451 0
-15 -96 -451 0
451 177 -258 0
-451 177 258 0
451 -177 258 0
-451 -177 -258 0
177 -452 0
451 -452 0
-177 -451 452 0
96 -453 0
15 -453 0
-96 -15 453 0
-452 340 0
-453 340 0
452 453 -340 0
16 97 -454 0
-16 97 454 0
16 -97 454 0
-16 -97 -454 0
454 178 -259 0
-454 178 259 0
454 -178 259 0
-454 -178 -259 0
178 -455 0
454 -455 0
-178 -454 455 0
97 -456 0
16 -456 0
-97 -16 456 0
-455 341 0
-456 341 0
455 456 -341 0
17 98 -457 0
-17 98 457 0
17 -98 457 0
-17 -98 -457 0
457 179 -260 0
-457 179 260 0
457 -179 260 0
-457 -179 -260 0
179 -458 0
457 -458 0
-179 -457 458 0
98 -459 0
17 -459 0
-98 -17 459 0
-458 342 0
-459 342 0
458 459 -342 0
18 99 -460 0
-18 99 460 0
18 -99 460 0
-18 -99 -460 0
460 180 -261 0
-460 180 261 0
460 -180 261 0
-460 -180 -261 0
180 -461 0
460 -461 0
-180 -460 461 0
99 -462 0
18 -462 0
-99 -18 462 0
-461 343 0
-462 343 0
461 462 -343 0
19 100 -463 0
-19 100 463 0
19 -100 463 0
-19 -100 -463 0
463 181 -262 0
-463 181 262 0
463 -181 262 0
-463 -181 -262 0
181 -464 0
463 -464 0
-181 -463 464 0
100 -465 0
19 -465 0
-100 -19 465 0
-464 344 0
-465 344 0
464 465 -344 0
20 101 -466 0
-20 101 466 0
20 -101 466 0
-20 -101 -466 0
466 182 -263 0
-466 182 263 0
466 -182 263 0
-466 -182 -263 0
182 -467 0
466 -467 0
-182 -466 467 0
101 -468 0
20 -468 0
-101 -20 468 0
-467 345 0
-468 345 0
467 468 -345 0
21 102 -469 0
-21 102 469 0
21 -102 469 0
-21 -102 -469 0
469 183 -264 0
-469 183 264 0
469 -183 264 0
-469 -183 -264 0
183 -470 0
469 -470 0
-183 -469 470 0
102 -471 0
21 -471 0
-102 -21 471 0
-470 346 0
-471 346 0
470 471 -346 0
22 103 -472 0
-22 103 472 0
22 -103 472 0
-22 -103 -472 0
472 184 -265 0
-472 184 265 0
472 -184 265 0
-472 -184 -265 0
184 -473 0
472 -473 0
-184 -472 473 0
103 -474 0
22 -474 0
-103 -22 474 0
-473 347 0
-474 347 0
473 474 -347 0
23 104 -475 0
-23 104 475 0
23 -104 475 0
-23 -104 -475 0
475 185 -266 0
-475 185 266 0
475 -185 266 0
-475 -185 -266 0
185 -476 0
475 -476 0
-185 -475 476 0
104 -477 0
23 -477 0
-104 -23 477 0
-476 348 0
-477 348 0
476 477 -348 0
24 105 -478 0
-24 105 478 0
24 -105 478 0
-24 -105 -478 0
478 186 -267 0
-478 186 267 0
478 -186 267 0
-478 -186 -267 0
186 -479 0
478 -479 0
-186 -478 479 0
105 -480 0
24 -480 0
-105 -24 480 0
-479 349 0
-480 349 0
479 480 -349 0
25 106 -481 0
-25 106 481 0
25 -106 481 0
-25 -106 -481 0
481 187 -268 0
-481 187 268 0
481 -187 268 0
-481 -187 -268 0
187 -482 0
481 -482 0
-187 -481 482 0
106 -483 0
25 -483 0
-106 -25 483 0
-482 350 0
-483 350 0
482 483 -350 0
26 107 -484 0
-26 107 484 0
26 -107 484 0
-26 -107 -484 0
484 188 -269 0
-484 188 269 0
484 -188 269 0
-484 -188 -269 0
188 -485 0
484 -485 0
-188 -484 485 0
107 -486 0
26 -486 0
-107 -26 486 0
-485 351 0
-486 351 0
485 486 -351 0
27 108 -487 0
-27 108 487 0
27 -108 487 0
-27 -108 -487 0
487 189 -270 0
-487 189 270 0
487 -189 270 0
-487 -189 -270 0
189 -488 0
487 -488 0
-189 -487 488 0
108 -489 0
27 -489 0
-108 -27 489 0
-488 352 0
-489 352 0
488 489 -352 0
28 109 -490 0
-28 109 490 0
28 -109 490 0
-28 -109 -490 0
490 190 -271 0
-490 190 271 0
490 -190 271 0
-490 -190 -271 0
190 -491 0
490 -491 0
-190 -490 491 0
109 -492 0
28 -492 0
-109 -28 492 0
-491 353 0
-492 353 0
491 492 -353 0
29 110 -493 0
-29 110 493 0
29 -110 493 0
-29 -110 -493 0
493 191 -272 0
-493 191 272 0
493 -191 272 0
-493 -191 -272 0
191 -494 0
493 -494 0
-191 -493 494 0
110 -495 0
29 -495 0
-110 -29 495 0
-494 354 0
-495 354 0
494 495 -354 0
30 111 -496 0
-30 111 496 0
30 -111 496 0
-30 -111 -496 0
496 192 -273 0
-496 192 273 0
496 -192 273 0
-496 -192 -273 0
192 -497 0
496 -497 0
-192 -496 497 0
111 -498 0
30 -498 0
-111 -30 498 0
-497 355 0
-498 355 0
497 498 -355 0
31 112 -499 0
-31 112 499 0
31 -112 499 0
-31 -112 -499 0
499 193 -274 0
-499 193 274 0
499 -193 274 0
-499 -193 -274 0
193 -500 0
499 -500 0
-193 -499 500 0
112 -501 0
31 -501 0
-112 -31 501 0
-500 356 0
-501 356 0
500 501 -356 0
32 113 -502 0
-32 113 502 0
32 -113 502 0
-32 -113 -502 0
502 194 -275 0
-502 194 275 0
502 -194 275 0
-502 -194 -275 0
194 -503 0
502 -503 0
-194 -502 503 0
113 -504 0
32 -504 0
-113 -32 504 0
-503 357 0
-504 357 0
503 504 -357 0
33 114 -505 0
-33 114 505 0
33 -114 505 0
-33 -114 -505 0
505 195 -276 0
-505 195 276 0
505 -195 276 0
-505 -195 -276 0
195 -506 0
505 -506 0
-195 -505 506 0
114 -507 0
33 -507 0
-114 -33 507 0
-506 358 0
-507 358 0
506 507 -358 0
34 115 -508 0
-34 115 508 0
34 -115 508 0
-34 -115 -508 0
508 196 -277 0
-508 196 277 0
508 -196 277 0
-508 -196 -277 0
196 -509 0
508 -509 0
-196 -508 509 0
115 -510 0
34 -510 0
-115 -34 510 0
-509 359 0
-510 359 0
509 510 -359 0
35 116 -511 0
-35 116 511 0
35 -116 511 0
-35 -116 -511 0
511 197 -278 0
-511 197 278 0
511 -197 278 0
-511 -197 -278 0
197 -512 0
511 -512 0
-197 -511 512 0
116 -513 0
35 -513 0
-116 -35 513 0
-512 360 0
-513 360 0
512 513 -360 0
36 117 -514 0
-36 117 514 0
36 -117 514 0
-36 -117 -514 0
514 198 -279 0
-514 198 279 0
514 -198 279 0
-514 -198 -279 0
198 -515 0
514 -515 0
-198 -514 515 0
117 -516 0
36 -516 0
-117 -36 516 0
-515 361 0
-516 361 0
515 516 -361 0
37 118 -517 0
-37 118 517 0
37 -118 517 0
-37 -118 -517 0
517 199 -280 0
-517 199 280 0
517 -199 280 0
-517 -199 -280 0
199 -518 0
517 -518 0
-199 -517 518 0
118 -519 0
37 -519 0
-118 -37 519 0
-518 362 0
-519 362 0
518 519 -362 0
38 119 -520 0
-38 119 520 0
38 -119 520 0
-38 -119 -520 0
520 200 -281 0
-520 200 281 0
520 -200 281 0
-520 -200 -281 0
200 -521 0
520 -521 0
-200 -520 521 0
119 -522 0
38 -522 0
-119 -38 522 0
-521 363 0
-522 363 0
521 522 -363 0
39 120 -523 0
-39 120 523 0
39 -120 523 0
-39 -120 -523 0
523 201 -282 0
-523 201 282 0
523 -201 282 0
-523 -201 -282 0
201 -524 0
523 -524 0
-201 -523 524 0
120 -525 0
39 -525 0
-120 -39 525 0
-524 364 0
-525 364 0
524 525 -364 0
40 121 -526 0
-40 121 526 0
40 -121 526 0
-40 -121 -526 0
526 202 -283 0
-526 202 283 0
526 -202 283 0
-526 -202 -283 0
202 -527 0
526 -527 0
-202 -526 527 0
121 -528 0
40 -528 0
-121 -40 528 0
-527 365 0
-528 365 0
527 528 -365 0
41 122 -529 0
-41 122 529 0
41 -122 529 0
-41 -122 -529 0
529 203 -284 0
-529 203 284 0
529 -203 284 0
-529 -203 -284 0
203 -530 0
529 -530 0
-203 -529 530 0
122 -531 0
41 -531 0
-122 -41 531 0
-530 366 0
-531 366 0
530 531 -366 0
42 123 -532 0
-42 123 532 0
42 -123 532 0
-42 -123 -532 0
532 204 -285 0
-532 204 285 0
532 -204 285 0
-532 -204 -285 0
204 -533 0
532 -533 0
-204 -532 533 0
123 -534 0
42 -534 0
-123 -42 534 0
-533 367 0
-534 367 0
533 534 -367 0
43 124 -535 0
-43 124 535 0
43 -124 535 0
-43 -124 -535 0
535 205 -286 0
-535 205 286 0
535 -205 286 0
-535 -205 -286 0
205 -536 0
535 -536 0
-205 -535 536 0
124 -537 0
43 -537 0
-124 -43 537 0
-536 368 0
-537 368 0
536 537 -368 0
44 125 -538 0
-44 125 538 0
44 -125 538 0
-44 -125 -538 0
538 206 -287 0
-538 206 287 0
538 -206 287 0
-538 -206 -287 0
206 -539 0
538 -539 0
-206 -538 539 0
125 -540 0
44 -540 0
-125 -44 540 0
-539 369 0
-540 369 0
539 540 -369 0
45 126 -541 0
-45 126 541 0
45 -126 541 0
-45 -126 -541 0
541 207 -288 0
-541 207 288 0
541 -207 288 0
-541 -207 -288 0
207 -542 0
541 -542 0
-207 -541 542 0
126 -543 0
45 -543 0
-126 -45 543 0
-542 370 0
-543 370 0
542 543 -370 0
46 127 -544 0
-46 127 544 0
46 -127 544 0
-46 -127 -544 0
544 208 -289 0
-544 208 289 0
544 -208 289 0
-544 -208 -289 0
208 -545 0
544 -545 0
-208 -544 545 0
127 -546 0
46 -546 0
-127 -46 546 0
-545 371 0
-546 371 0
545 546 -371 0
47 128 -547 0
-47 128 547 0
47 -128 547 0
-47 -128 -547 0
547 209 -290 0
-547 209 290 0
547 -209 290 0
-547 -209 -290 0
209 -548 0
547 -548 0
-209 -547 548 0
128 -549 0
47 -549 0
-128 -47 549 0
-548 372 0
-549 372 0
548 549 -372 0
48 129 -550 0
-48 129 550 0
48 -129 550 0
-48 -129 -550 0
550 210 -291 0
-550 210 291 0
550 -210 291 0
-550 -210 -291 0
210 -551 0
550 -551 0
-210 -550 551 0
129 -552 0
48 -552 0
-129 -48 552 0
-551 373 0
-552 373 0
551 552 -373 0
49 130 -553 0
-49 130 553 0
49 -130 553 0
-49 -130 -553 0
553 211 -292 0
-553 211 292 0
553 -211 292 0
-553 -211 -292 0
211 -554 0
553 -554 0
-211 -553 554 0
130 -555 0
49 -555 0
-130 -49 555 0
-554 374 0
-555 374 0
554 555 -374 0
50 131 -556 0
-50 131 556 0
50 -131 556 0
-50 -131 -556 0
556 212 -293 0
-556 212 293 0
556 -212 293 0
-556 -212 -293 0
212 -557 0
556 -557 0
-212 -556 557 0
131 -558 0
50 -558 0
-131 -50 558 0
-557 375 0
-558 375 0
557 558 -375 0
51 132 -559 0
-51 132 559 0
51 -132 559 0
-51 -132 -559 0
559 213 -294 0
-559 213 294 0
559 -213 294 0
-559 -213 -294 0
213 -560 0
559 -560 0
-213 -559 560 0
132 -561 0
51 -561 0
-132 -51 561 0
-560 376 0
-561 376 0
560 561 -376 0
52 133 -562 0
-52 133 562 0
52 -133 562 0
-52 -133 -562 0
562 214 -295 0
-562 214 295 0
562 -214 295 0
-562 -214 -295 0
214 -563 0
562 -563 0
-214 -562 563 0
133 -564 0
52 -564 0
-133 -52 564 0
-563 377 0
-564 377 0
563 564 -377 0
53 134 -565 0
-53 134 565 0
53 -134 565 0
-53 -134 -565 0
565 215 -296 0
-565 215 296 0
565 -215 296 0
-565 -215 -296 0
215 -566 0
565 -566 0
-215 -565 566 0
134 -567 0
53 -567 0
-134 -53 567 0
-566 378 0
-567 378 0
566 567 -378 0
54 135 -568 0
-54 135 568 0
54 -135 568 0
-54 -135 -568 0
568 216 -297 0
-568 216 297 0
568 -216 297 0
-568 -216 -297 0
216 -569 0
568 -569 0
-216 -568 569 0
135 -570 0
54 -570 0
-135 -54 570 0
-569 379 0
-570 379 0
569 570 -379 0
55 136 -571 0
-55 136 571 0
55 -136 571 0
-55 -136 -571 0
571 217 -298 0
-571 217 298 0
571 -217 298 0
-571 -217 -298 0
217 -572 0
571 -572 0
-217 -571 572 0
136 -573 0
55 -573 0
-136 -55 573 0
-572 380 0
-573 380 0
572 573 -380 0
56 137 -574 0
-56 137 574 0
56 -137 574 0
-56 -137 -574 0
574 218 -299 0
-574 218 299 0
574 -218 299 0
-574 -218 -299 0
218 -575 0
574 -575 0
-218 -574 575 0
137 -576 0
56 -576 0
-137 -56 576 0
-575 381 0
-576 381 0
575 576 -381 0
57 138 -577 0
-57 138 577 0
57 -138 577 0
-57 -138 -577 0
577 219 -300 0
-577 219 300 0
577 -219 300 0
-577 -219 -300 0
219 -578 0
577 -578 0
-219 -577 578 0
138 -579 0
57 -579 0
-138 -57 579 0
-578 382 0
-579 382 0
578 579 -382 0
58 139 -580 0
-58 139 580 0
58 -139 580 0
-58 -139 -580 0
580 220 -301 0
-580 220 301 0
580 -220 301 0
-580 -220 -301 0
220 -581 0
580 -581 0
-220 -580 581 0
139 -582 0
58 -582 0
-139 -58 582 0
-581 383 0
-582 383 0
581 582 -383 0
59 140 -583 0
-59 140 583 0
59 -140 583 0
-59 -140 -583 0
583 221 -302 0
-583 221 302 0
583 -221 302 0
-583 -221 -302 0
221 -584 0
583 -584 0
-221 -583 584 0
140 -585 0
59 -585 0
-140 -59 585 0
-584 384 0
-585 384 0
584 585 -384 0
60 141 -586 0
-60 141 586 0
60 -141 586 0
-60 -141 -586 0
586 222 -303 0
-586 222 303 0
586 -222 303 0
-586 -222 -303 0
222 -587 0
586 -587 0
-222 -586 587 0
141 -588 0
60 -588 0
-141 -60 588 0
-587 385 0
-588 385 0
587 588 -385 0
61 142 -589 0
-61 142 589 0
61 -142 589 0
-61 -142 -589 0
589 223 -304 0
-589 223 304 0
589 -223 304 0
-589 -223 -304 0
223 -590 0
589 -590 0
-223 -589 590 0
142 -591 0
61 -591 0
-142 -61 591 0
-590 386 0
-591 386 0
590 591 -386 0
62 143 -592 0
-62 143 592 0
62 -143 592 0
-62 -143 -592 0
592 224 -305 0
-592 224 305 0
592 -224 305 0
-592 -224 -305 0
224 -593 0
592 -593 0
-224 -592 593 0
143 -594 0
62 -594 0
-143 -62 594 0
-593 387 0
-594 387 0
593 594 -387 0
63 144 -595 0
-63 144 595 0
63 -144 595 0
-63 -144 -595 0
595 225 -306 0
-595 225 306 0
595 -225 306 0
-595 -225 -306 0
225 -596 0
595 -596 0
-225 -595 596 0
144 -597 0
63 -597 0
-144 -63 597 0
-596 388 0
-597 388 0
596 597 -388 0
64 145 -598 0
-64 145 598 0
64 -145 598 0
-64 -145 -598 0
598 226 -307 0
-598 226 307 0
598 -226 307 0
-598 -226 -307 0
226 -599 0
598 -599 0
-226 -598 599 0
145 -600 0
64 -600 0
-145 -64 600 0
-599 389 0
-600 389 0
599 600 -389 0
65 146 -601 0
-65 146 601 0
65 -146 601 0
-65 -146 -601 0
601 227 -308 0
-601 227 308 0
601 -227 308 0
-601 -227 -308 0
227 -602 0
601 -602 0
-227 -601 602 0
146 -603 0
65 -603 0
-146 -65 603 0
-602 390 0
-603 390 0
602 603 -390 0
66 147 -604 0
-66 147 604 0
66 -147 604 0
-66 -147 -604 0
604 228 -309 0
-604 228 309 0
604 -228 309 0
-604 -228 -309 0
228 -605 0
604 -605 0
-228 -604 605 0
147 -606 0
66 -606 0
-147 -66 606 0
-605 391 0
-606 391 0
605 606 -391 0
67 148 -607 0
-67 148 607 0
67 -148 607 0
-67 -148 -607 0
607 229 -310 0
-607 229 310 0
607 -229 310 0
-607 -229 -310 0
229 -608 0
607 -608 0
-229 -607 608 0
148 -609 0
67 -609 0
-148 -67 609 0
-608 392 0
-609 392 0
608 609 -392 0
68 149 -610 0
-68 149 610 0
68 -149 610 0
-68 -149 -610 0
610 230 -311 0
-610 230 311 0
610 -230 311 0
-610 -230 -311 0
230 -611 0
610 -611 0
-230 -610 611 0
149 -612 0
68 -612 0
-149 -68 612 0
-611 393 0
-612 393 0
611 612 -393 0
69 150 -613 0
-69 150 613 0
69 -150 613 0
-69 -150 -613 0
613 231 -312 0
-613 231 312 0
613 -231 312 0
-613 -231 -312 0
231 -614 0
613 -614 0
-231 -613 614 0
150 -615 0
69 -615 0
-150 -69 615 0
-614 394 0
-615 394 0
614 615 -394 0
70 151 -616 0
-70 151 616 0
70 -151 616 0
-70 -151 -616 0
616 232 -313 0
-616 232 313 0
616 -232 313 0
-616 -232 -313 0
232 -617 0
616 -617 0
-232 -616 617 0
151 -618 0
70 -618 0
-151 -70 618 0
-617 395 0
-618 395 0
617 618 -395 0
71 152 -619 0
-71 152 619 0
71 -152 619 0
-71 -152 -619 0
619 233 -314 0
-619 233 314 0
619 -233 314 0
-619 -233 -314 0
233 -620 0
619 -620 0
-233 -619 620 0
152 -621 0
71 -621 0
-152 -71 621 0
-620 396 0
-621 396 0
620 621 -396 0
72 153 -622 0
-72 153 622 0
72 -153 622 0
-72 -153 -622 0
622 234 -315 0
-622 234 315 0
622 -234 315 0
-622 -234 -315 0
234 -623 0
622 -623 0
-234 -622 623 0
153 -624 0
72 -624 0
-153 -72 624 0
-623 397 0
-624 397 0
623 624 -397 0
73 154 -625 0
-73 154 625 0
73 -154 625 0
-73 -154 -625 0
625 235 -316 0
-625 235 316 0
625 -235 316 0
-625 -235 -316 0
235 -626 0
625 -626 0
-235 -625 626 0
154 -627 0
73 -627 0
-154 -73 627 0
-626 398 0
-627 398 0
626 627 -398 0
74 155 -628 0
-74 155 628 0
74 -155 628 0
-74 -155 -628 0
628 236 -317 0
-628 236 317 0
628 -236 317 0
-628 -236 -317 0
236 -629 0
628 -629 0
-236 -628 629 0
155 -630 0
74 -630 0
-155 -74 630 0
-629 399 0
-630 399 0
629 630 -399 0
75 156 -631 0
-75 156 631 0
75 -156 631 0
-75 -156 -631 0
631 237 -318 0
-631 237 318 0
631 -237 318 0
-631 -237 -318 0
237 -632 0
631 -632 0
-237 -631 632 0
156 -633 0
75 -633 0
-156 -75 633 0
-632 400 0
-633 400 0
632 633 -400 0
76 157 -634 0
-76 157 634 0
76 -157 634 0
-76 -157 -634 0
634 238 -319 0
-634 238 319 0
634 -238 319 0
-634 -238 -319 0
238 -635 0
634 -635 0
-238 -634 635 0
157 -636 0
76 -636 0
-157 -76 636 0
-635 401 0
-636 401 0
635 636 -401 0
77 158 -637 0
-77 158 637 0
77 -158 637 0
-77 -158 -637 0
637 239 -320 0
-637 239 320 0
637 -239 320 0
-637 -239 -320 0
239 -638 0
637 -638 0
-239 -637 638 0
158 -639 0
77 -639 0
-158 -77 639 0
-638 402 0
-639 402 0
638 639 -402 0
78 159 -640 0
-78 159 640 0
78 -159 640 0
-78 -159 -640 0
640 240 -321 0
-640 240 321 0
640 -240 321 0
-640 -240 -321 0
240 -641 0
640 -641 0
-240 -640 641 0
159 -642 0
78 -642 0
-159 -78 642 0
-641 403 0
-642 403 0
641 642 -403 0
79 160 -643 0
-79 160 643 0
79 -160 643 0
-79 -160 -643 0
643 241 -322 0
-643 241 322 0
643 -241 322 0
-643 -241 -322 0
241 -644 0
643 -644 0
-241 -643 644 0
160 -645 0
79 -645 0
-160 -79 645 0
-644 404 0
-645 404 0
644 645 -404 0
80 161 -646 0
-80 161 646 0
80 -161 646 0
-80 -161 -646 0
646 242 -323 0
-646 242 323 0
646 -242 323 0
-646 -242 -323 0
242 -647 0
646 -647 0
-242 -646 647 0
161 -648 0
80 -648 0
-161 -80 648 0
-647 405 0
-648 405 0
647 648 -405 0
81 162 -649 0
-81 162 649 0
81 -162 649 0
-81 -162 -649 0
649 243 -324 0
-649 243 324 0
649 -243 324 0
-649 -243 -324 0
243 -650 0
649 -650 0
-243 -649 650 0
162 -651 0
81 -651 0
-162 -81 651 0
-650 406 0
-651 406 0
650 651 -406 0
